# Solution for model r5_t27_m5_9 Batch Number: 4
# Finished Task: 25 / 27
# Makespan: 915.0, Total Distance: 568.0, Total Time: 1.7212
# R O S F Batch
0 0 11 0.0 0.0 -1
1 1 16 0.0 0.0 -1
2 2 24 0.0 0.0 -1
3 3 15 0.0 0.0 -1
4 4 8 0.0 0.0 -1
5 2 13 543.0 582.0 2
6 1 26 480.0 512.0 0
7 -1 -1 -1.0 -1.0 0
8 4 28 161.0 193.0 0
9 3 17 412.0 450.0 0
10 1 18 336.0 373.0 0
11 0 27 314.0 336.0 0
12 2 14 314.0 346.0 0
13 2 23 765.0 796.0 3
14 2 21 436.0 465.0 0
15 3 9 374.0 404.0 0
16 1 10 271.0 295.0 0
17 3 31 506.0 536.0 0
18 1 6 437.0 459.0 0
19 0 22 597.0 623.0 2
20 3 -1 735.0 765.0 3
21 2 5 506.0 529.0 2
22 0 -1 765.0 795.0 3
23 2 30 818.0 857.0 3
24 2 12 283.0 314.0 0
25 -1 -1 -1.0 -1.0 3
26 1 -1 558.0 583.0 1
27 0 19 553.0 583.0 0
28 4 29 623.0 645.0 2
29 4 -1 660.0 698.0 2
30 2 -1 876.0 915.0 3
31 3 20 662.0 698.0 2
